(set-logic QF_NRA)
(set-info :source |Benchmarks generated from hycomp (https://es-static.fbk.eu/tools/hycomp/). BMC instances of non-linear hybrid automata taken from: Alessandro Cimatti, Sergio Mover, Stefano Tonetta, A quantifier-free SMT encoding of non-linear hybrid automata, FMCAD 2012 and Alessandro Cimatti, Sergio Mover, Stefano Tonetta, Quantier-free encoding of invariants for Hybrid Systems, Formal Methods in System Design. This instance solves a BMC problem of depth 3 and uses the quantifier free encoding encoding. Contacts: Sergio Mover (mover@fbk.eu), Stefano Tonetta (tonettas@fbk.eu), Alessandro Cimatti (cimatti@fbk.eu).|)
(set-info :smt-lib-version 2.0)
(set-info :category "industrial")
(set-info :status unsat)
;; MathSAT API call trace
;; generated on Mon Mar 19 10:41:55 2012
(declare-fun b.time__AT1 () Real)
(declare-fun b.x__AT1 () Real)
(declare-fun b.speed_y__AT2 () Real)
(declare-fun b.y__AT3 () Real)
(declare-fun b.event_is_timed__AT1 () Bool)
(declare-fun b.counter.0__AT1 () Bool)
(declare-fun b.EVENT.1__AT0 () Bool)
(declare-fun b.speed_loss__AT0 () Real)
(declare-fun b.counter.0__AT3 () Bool)
(declare-fun b.counter.1__AT1 () Bool)
(declare-fun b.speed_x__AT0 () Real)
(declare-fun b.x__AT3 () Real)
(declare-fun b.EVENT.0__AT3 () Bool)
(declare-fun b.counter.1__AT3 () Bool)
(declare-fun b.counter.2__AT1 () Bool)
(declare-fun b.time__AT0 () Real)
(declare-fun b.EVENT.1__AT3 () Bool)
(declare-fun b.counter.2__AT0 () Bool)
(declare-fun b.counter.2__AT3 () Bool)
(declare-fun b.counter.3__AT1 () Bool)
(declare-fun b.time__AT3 () Real)
(declare-fun b.counter.3__AT3 () Bool)
(declare-fun b.bool_atom__AT1 () Bool)
(declare-fun b.delta__AT3 () Real)
(declare-fun b.bool_atom__AT3 () Bool)
(declare-fun b.x__AT0 () Real)
(declare-fun b.speed_x__AT3 () Real)
(declare-fun b.speed_y__AT1 () Real)
(declare-fun b.delta__AT1 () Real)
(declare-fun b.bool_atom__AT0 () Bool)
(declare-fun b.y__AT0 () Real)
(declare-fun b.speed_y__AT3 () Real)
(declare-fun b.EVENT.1__AT1 () Bool)
(declare-fun b.EVENT.0__AT1 () Bool)
(declare-fun b.counter.0__AT0 () Bool)
(declare-fun b.delta__AT0 () Real)
(declare-fun b.counter.1__AT0 () Bool)
(declare-fun b.y__AT1 () Real)
(declare-fun b.EVENT.0__AT0 () Bool)
(declare-fun b.event_is_timed__AT2 () Bool)
(declare-fun b.speed_y__AT0 () Real)
(declare-fun b.time__AT2 () Real)
(declare-fun b.y__AT2 () Real)
(declare-fun b.delta__AT2 () Real)
(declare-fun b.counter.0__AT2 () Bool)
(declare-fun b.event_is_timed__AT0 () Bool)
(declare-fun b.x__AT2 () Real)
(declare-fun b.EVENT.0__AT2 () Bool)
(declare-fun b.counter.1__AT2 () Bool)
(declare-fun b.EVENT.1__AT2 () Bool)
(declare-fun b.counter.2__AT2 () Bool)
(declare-fun b.event_is_timed__AT3 () Bool)
(declare-fun b.counter.3__AT0 () Bool)
(declare-fun b.counter.3__AT2 () Bool)
(declare-fun b.speed_x__AT1 () Real)
(declare-fun b.bool_atom__AT2 () Bool)
(declare-fun b.speed_x__AT2 () Real)
(assert (let ((.def_874 (* (- 1.0) b.speed_x__AT3)))
(let ((.def_875 (* b.speed_x__AT3 .def_874)))
(let ((.def_876 (* (- 1.0) .def_875)))
(let ((.def_907 (* 2.0 .def_876)))
(let ((.def_925 (* (- 1.0) .def_907)))
(let ((.def_926 (* b.delta__AT3 .def_925)))
(let ((.def_927 (* (- 5.0) .def_926)))
(let ((.def_814 (* (- 1.0) b.x__AT3)))
(let ((.def_887 (* b.speed_x__AT3 .def_814)))
(let ((.def_912 (* (- 5.0) .def_887)))
(let ((.def_932 (+ .def_912 .def_927)))
(let ((.def_882 (* b.x__AT3 .def_874)))
(let ((.def_910 (* (- 5.0) .def_882)))
(let ((.def_933 (+ .def_910 .def_932)))
(let ((.def_914 (* (- 49.0) b.delta__AT3)))
(let ((.def_934 (+ .def_914 .def_933)))
(let ((.def_916 (* 5.0 b.speed_y__AT3)))
(let ((.def_935 (+ .def_916 .def_934)))
(let ((.def_936 (<= .def_935 0.0 )))
(let ((.def_888 (* (- 1.0) .def_887)))
(let ((.def_883 (* (- 1.0) .def_882)))
(let ((.def_904 (+ .def_883 .def_888)))
(let ((.def_905 (+ b.speed_y__AT3 .def_904)))
(let ((.def_924 (<= .def_905 0.0 )))
(let ((.def_937 (and .def_924 .def_936)))
(let ((.def_908 (* b.delta__AT3 .def_907)))
(let ((.def_909 (* 5.0 .def_908)))
(let ((.def_918 (+ .def_912 .def_909)))
(let ((.def_919 (+ .def_910 .def_918)))
(let ((.def_920 (+ .def_914 .def_919)))
(let ((.def_921 (+ .def_916 .def_920)))
(let ((.def_922 (<= 0.0 .def_921)))
(let ((.def_906 (<= 0.0 .def_905)))
(let ((.def_923 (and .def_906 .def_922)))
(let ((.def_938 (or .def_923 .def_937)))
(let ((.def_889 (* b.delta__AT3 .def_888)))
(let ((.def_890 (* 10.0 .def_889)))
(let ((.def_884 (* b.delta__AT3 .def_883)))
(let ((.def_885 (* 10.0 .def_884)))
(let ((.def_896 (+ .def_885 .def_890)))
(let ((.def_873 (* b.delta__AT3 b.delta__AT3)))
(let ((.def_877 (* .def_873 .def_876)))
(let ((.def_878 (* 10.0 .def_877)))
(let ((.def_897 (+ .def_878 .def_896)))
(let ((.def_880 (* (- 49.0) .def_873)))
(let ((.def_898 (+ .def_880 .def_897)))
(let ((.def_871 (* b.speed_y__AT3 b.delta__AT3)))
(let ((.def_872 (* 10.0 .def_871)))
(let ((.def_899 (+ .def_872 .def_898)))
(let ((.def_860 (* b.x__AT3 .def_814)))
(let ((.def_892 (* (- 10.0) .def_860)))
(let ((.def_900 (+ .def_892 .def_899)))
(let ((.def_894 (* 10.0 b.y__AT3)))
(let ((.def_901 (+ .def_894 .def_900)))
(let ((.def_902 (<= 0.0 .def_901)))
(let ((.def_861 (<= .def_860 b.y__AT3)))
(let ((.def_903 (and .def_861 .def_902)))
(let ((.def_939 (and .def_903 .def_938)))
(let ((.def_68 (<= b.speed_loss__AT0 (/ 1 2))))
(let ((.def_65 (<= (/ 1 10) b.speed_loss__AT0)))
(let ((.def_69 (and .def_65 .def_68)))
(let ((.def_940 (and .def_69 .def_939)))
(let ((.def_514 (not b.counter.0__AT2)))
(let ((.def_504 (not b.counter.1__AT2)))
(let ((.def_865 (and .def_504 .def_514)))
(let ((.def_509 (not b.counter.2__AT2)))
(let ((.def_866 (and .def_509 .def_865)))
(let ((.def_523 (not b.counter.3__AT2)))
(let ((.def_867 (and .def_523 .def_866)))
(let ((.def_862 (and .def_69 .def_861)))
(let ((.def_857 (not b.EVENT.0__AT3)))
(let ((.def_855 (not b.EVENT.1__AT3)))
(let ((.def_858 (or .def_855 .def_857)))
(let ((.def_6 (not b.counter.0__AT3)))
(let ((.def_4 (not b.counter.1__AT3)))
(let ((.def_848 (or .def_4 .def_6)))
(let ((.def_852 (or b.counter.3__AT3 .def_848)))
(let ((.def_849 (or b.counter.2__AT3 .def_848)))
(let ((.def_9 (not b.counter.2__AT3)))
(let ((.def_847 (or .def_6 .def_9)))
(let ((.def_850 (and .def_847 .def_849)))
(let ((.def_12 (not b.counter.3__AT3)))
(let ((.def_851 (or .def_12 .def_850)))
(let ((.def_853 (and .def_851 .def_852)))
(let ((.def_859 (and .def_853 .def_858)))
(let ((.def_863 (and .def_859 .def_862)))
(let ((.def_842 (<= 0.0 b.delta__AT2)))
(let ((.def_601 (not b.EVENT.0__AT2)))
(let ((.def_599 (not b.EVENT.1__AT2)))
(let ((.def_686 (and .def_599 .def_601)))
(let ((.def_688 (not .def_686)))
(let ((.def_843 (or .def_688 .def_842)))
(let ((.def_844 (or b.EVENT.1__AT2 .def_843)))
(let ((.def_726 (= b.bool_atom__AT2 b.bool_atom__AT3)))
(let ((.def_722 (= b.counter.0__AT3 b.counter.0__AT2)))
(let ((.def_720 (= b.counter.1__AT3 b.counter.1__AT2)))
(let ((.def_718 (= b.counter.2__AT3 b.counter.2__AT2)))
(let ((.def_717 (= b.counter.3__AT3 b.counter.3__AT2)))
(let ((.def_719 (and .def_717 .def_718)))
(let ((.def_721 (and .def_719 .def_720)))
(let ((.def_723 (and .def_721 .def_722)))
(let ((.def_838 (and .def_723 .def_726)))
(let ((.def_839 (or .def_688 .def_838)))
(let ((.def_840 (or b.EVENT.1__AT2 .def_839)))
(let ((.def_826 (* (- 10.0) b.y__AT3)))
(let ((.def_617 (* b.delta__AT2 b.delta__AT2)))
(let ((.def_624 (* (- 49.0) .def_617)))
(let ((.def_830 (+ .def_624 .def_826)))
(let ((.def_615 (* b.speed_y__AT2 b.delta__AT2)))
(let ((.def_616 (* 10.0 .def_615)))
(let ((.def_831 (+ .def_616 .def_830)))
(let ((.def_638 (* 10.0 b.y__AT2)))
(let ((.def_832 (+ .def_638 .def_831)))
(let ((.def_833 (= .def_832 0.0 )))
(let ((.def_821 (* (- 5.0) b.speed_y__AT3)))
(let ((.def_658 (* (- 49.0) b.delta__AT2)))
(let ((.def_822 (+ .def_658 .def_821)))
(let ((.def_660 (* 5.0 b.speed_y__AT2)))
(let ((.def_823 (+ .def_660 .def_822)))
(let ((.def_824 (= .def_823 0.0 )))
(let ((.def_813 (* b.speed_x__AT2 b.delta__AT2)))
(let ((.def_817 (+ .def_814 .def_813)))
(let ((.def_818 (+ b.x__AT2 .def_817)))
(let ((.def_819 (= .def_818 0.0 )))
(let ((.def_712 (= b.speed_x__AT2 b.speed_x__AT3)))
(let ((.def_820 (and .def_712 .def_819)))
(let ((.def_825 (and .def_820 .def_824)))
(let ((.def_834 (and .def_825 .def_833)))
(let ((.def_835 (or .def_688 .def_834)))
(let ((.def_709 (= b.y__AT2 b.y__AT3)))
(let ((.def_706 (= b.x__AT2 b.x__AT3)))
(let ((.def_807 (and .def_706 .def_709)))
(let ((.def_808 (and .def_712 .def_807)))
(let ((.def_715 (= b.speed_y__AT2 b.speed_y__AT3)))
(let ((.def_809 (and .def_715 .def_808)))
(let ((.def_804 (= b.delta__AT2 0.0 )))
(let ((.def_805 (and .def_686 .def_804)))
(let ((.def_806 (not .def_805)))
(let ((.def_810 (or .def_806 .def_809)))
(let ((.def_811 (or b.EVENT.1__AT2 .def_810)))
(let ((.def_796 (and .def_712 .def_715)))
(let ((.def_797 (and .def_723 .def_796)))
(let ((.def_798 (or b.bool_atom__AT2 .def_797)))
(let ((.def_772 (or .def_6 b.counter.0__AT2)))
(let ((.def_771 (or b.counter.0__AT3 .def_514)))
(let ((.def_773 (and .def_771 .def_772)))
(let ((.def_774 (and .def_4 .def_773)))
(let ((.def_775 (or b.counter.1__AT2 .def_774)))
(let ((.def_770 (or b.counter.1__AT3 .def_504)))
(let ((.def_776 (and .def_770 .def_775)))
(let ((.def_787 (and .def_9 .def_776)))
(let ((.def_788 (or b.counter.2__AT2 .def_787)))
(let ((.def_782 (and .def_4 .def_514)))
(let ((.def_783 (or b.counter.1__AT2 .def_782)))
(let ((.def_784 (and .def_770 .def_783)))
(let ((.def_785 (and b.counter.2__AT3 .def_784)))
(let ((.def_786 (or .def_509 .def_785)))
(let ((.def_789 (and .def_786 .def_788)))
(let ((.def_790 (and b.counter.3__AT3 .def_789)))
(let ((.def_791 (or b.counter.3__AT2 .def_790)))
(let ((.def_777 (and b.counter.2__AT3 .def_776)))
(let ((.def_778 (or b.counter.2__AT2 .def_777)))
(let ((.def_766 (or b.counter.1__AT3 b.counter.1__AT2)))
(let ((.def_764 (and .def_4 b.counter.0__AT3)))
(let ((.def_765 (or .def_504 .def_764)))
(let ((.def_767 (and .def_765 .def_766)))
(let ((.def_768 (and .def_9 .def_767)))
(let ((.def_769 (or .def_509 .def_768)))
(let ((.def_779 (and .def_769 .def_778)))
(let ((.def_780 (and .def_12 .def_779)))
(let ((.def_781 (or .def_523 .def_780)))
(let ((.def_792 (and .def_781 .def_791)))
(let ((.def_493 (* b.speed_y__AT2 b.speed_y__AT2)))
(let ((.def_491 (* b.speed_x__AT2 b.speed_x__AT2)))
(let ((.def_756 (+ .def_491 .def_493)))
(let ((.def_215 (* (- 1.0) b.speed_loss__AT0)))
(let ((.def_216 (+ 1.0 .def_215)))
(let ((.def_232 (* .def_216 .def_216)))
(let ((.def_757 (* .def_232 .def_756)))
(let ((.def_759 (* (- 1.0) .def_757)))
(let ((.def_753 (* b.speed_y__AT3 b.speed_y__AT3)))
(let ((.def_760 (+ .def_753 .def_759)))
(let ((.def_751 (* b.speed_x__AT3 b.speed_x__AT3)))
(let ((.def_761 (+ .def_751 .def_760)))
(let ((.def_762 (= .def_761 0.0 )))
(let ((.def_744 (* .def_216 b.speed_y__AT2)))
(let ((.def_478 (* (- 2.0) b.x__AT2)))
(let ((.def_479 (* (- 1.0) .def_478)))
(let ((.def_741 (* .def_216 .def_479)))
(let ((.def_742 (* b.speed_x__AT2 .def_741)))
(let ((.def_747 (+ .def_742 .def_744)))
(let ((.def_738 (* (- 2.0) b.x__AT3)))
(let ((.def_739 (* (- 1.0) .def_738)))
(let ((.def_740 (* b.speed_x__AT3 .def_739)))
(let ((.def_748 (+ .def_740 .def_747)))
(let ((.def_749 (+ b.speed_y__AT3 .def_748)))
(let ((.def_750 (= .def_749 0.0 )))
(let ((.def_763 (and .def_750 .def_762)))
(let ((.def_793 (and .def_763 .def_792)))
(let ((.def_737 (not b.bool_atom__AT2)))
(let ((.def_794 (or .def_737 .def_793)))
(let ((.def_480 (* b.speed_x__AT2 .def_479)))
(let ((.def_732 (+ b.speed_y__AT2 .def_480)))
(let ((.def_733 (<= 0.0 .def_732)))
(let ((.def_734 (not .def_733)))
(let ((.def_558 (* (- 1.0) b.x__AT2)))
(let ((.def_604 (* b.x__AT2 .def_558)))
(let ((.def_731 (= b.y__AT2 .def_604)))
(let ((.def_735 (and .def_731 .def_734)))
(let ((.def_736 (= b.bool_atom__AT2 .def_735)))
(let ((.def_795 (and .def_736 .def_794)))
(let ((.def_799 (and .def_795 .def_798)))
(let ((.def_800 (and .def_706 .def_799)))
(let ((.def_801 (and .def_709 .def_800)))
(let ((.def_802 (or .def_686 .def_801)))
(let ((.def_803 (or b.EVENT.1__AT2 .def_802)))
(let ((.def_812 (and .def_803 .def_811)))
(let ((.def_836 (and .def_812 .def_835)))
(let ((.def_693 (= b.time__AT2 b.time__AT3)))
(let ((.def_707 (and .def_693 .def_706)))
(let ((.def_710 (and .def_707 .def_709)))
(let ((.def_713 (and .def_710 .def_712)))
(let ((.def_716 (and .def_713 .def_715)))
(let ((.def_724 (and .def_716 .def_723)))
(let ((.def_727 (and .def_724 .def_726)))
(let ((.def_728 (or .def_599 .def_727)))
(let ((.def_696 (* (- 1.0) b.time__AT3)))
(let ((.def_699 (+ b.delta__AT2 .def_696)))
(let ((.def_700 (+ b.time__AT2 .def_699)))
(let ((.def_701 (= .def_700 0.0 )))
(let ((.def_702 (or .def_688 .def_701)))
(let ((.def_703 (or b.EVENT.1__AT2 .def_702)))
(let ((.def_694 (or .def_686 .def_693)))
(let ((.def_695 (or b.EVENT.1__AT2 .def_694)))
(let ((.def_704 (and .def_695 .def_703)))
(let ((.def_729 (and .def_704 .def_728)))
(let ((.def_690 (= .def_688 b.event_is_timed__AT3)))
(let ((.def_687 (= b.event_is_timed__AT2 .def_686)))
(let ((.def_691 (and .def_687 .def_690)))
(let ((.def_730 (and .def_691 .def_729)))
(let ((.def_837 (and .def_730 .def_836)))
(let ((.def_841 (and .def_837 .def_840)))
(let ((.def_845 (and .def_841 .def_844)))
(let ((.def_846 (and .def_599 .def_845)))
(let ((.def_864 (and .def_846 .def_863)))
(let ((.def_868 (and .def_864 .def_867)))
(let ((.def_618 (* (- 1.0) b.speed_x__AT2)))
(let ((.def_619 (* b.speed_x__AT2 .def_618)))
(let ((.def_620 (* (- 1.0) .def_619)))
(let ((.def_651 (* 2.0 .def_620)))
(let ((.def_669 (* (- 1.0) .def_651)))
(let ((.def_670 (* b.delta__AT2 .def_669)))
(let ((.def_671 (* (- 5.0) .def_670)))
(let ((.def_631 (* b.speed_x__AT2 .def_558)))
(let ((.def_656 (* (- 5.0) .def_631)))
(let ((.def_676 (+ .def_656 .def_671)))
(let ((.def_626 (* b.x__AT2 .def_618)))
(let ((.def_654 (* (- 5.0) .def_626)))
(let ((.def_677 (+ .def_654 .def_676)))
(let ((.def_678 (+ .def_658 .def_677)))
(let ((.def_679 (+ .def_660 .def_678)))
(let ((.def_680 (<= .def_679 0.0 )))
(let ((.def_632 (* (- 1.0) .def_631)))
(let ((.def_627 (* (- 1.0) .def_626)))
(let ((.def_648 (+ .def_627 .def_632)))
(let ((.def_649 (+ b.speed_y__AT2 .def_648)))
(let ((.def_668 (<= .def_649 0.0 )))
(let ((.def_681 (and .def_668 .def_680)))
(let ((.def_652 (* b.delta__AT2 .def_651)))
(let ((.def_653 (* 5.0 .def_652)))
(let ((.def_662 (+ .def_656 .def_653)))
(let ((.def_663 (+ .def_654 .def_662)))
(let ((.def_664 (+ .def_658 .def_663)))
(let ((.def_665 (+ .def_660 .def_664)))
(let ((.def_666 (<= 0.0 .def_665)))
(let ((.def_650 (<= 0.0 .def_649)))
(let ((.def_667 (and .def_650 .def_666)))
(let ((.def_682 (or .def_667 .def_681)))
(let ((.def_633 (* b.delta__AT2 .def_632)))
(let ((.def_634 (* 10.0 .def_633)))
(let ((.def_628 (* b.delta__AT2 .def_627)))
(let ((.def_629 (* 10.0 .def_628)))
(let ((.def_640 (+ .def_629 .def_634)))
(let ((.def_621 (* .def_617 .def_620)))
(let ((.def_622 (* 10.0 .def_621)))
(let ((.def_641 (+ .def_622 .def_640)))
(let ((.def_642 (+ .def_624 .def_641)))
(let ((.def_643 (+ .def_616 .def_642)))
(let ((.def_636 (* (- 10.0) .def_604)))
(let ((.def_644 (+ .def_636 .def_643)))
(let ((.def_645 (+ .def_638 .def_644)))
(let ((.def_646 (<= 0.0 .def_645)))
(let ((.def_605 (<= .def_604 b.y__AT2)))
(let ((.def_647 (and .def_605 .def_646)))
(let ((.def_683 (and .def_647 .def_682)))
(let ((.def_684 (and .def_69 .def_683)))
(let ((.def_253 (not b.counter.0__AT1)))
(let ((.def_243 (not b.counter.1__AT1)))
(let ((.def_609 (and .def_243 .def_253)))
(let ((.def_248 (not b.counter.2__AT1)))
(let ((.def_610 (and .def_248 .def_609)))
(let ((.def_262 (not b.counter.3__AT1)))
(let ((.def_611 (and .def_262 .def_610)))
(let ((.def_606 (and .def_69 .def_605)))
(let ((.def_602 (or .def_599 .def_601)))
(let ((.def_592 (or .def_504 .def_514)))
(let ((.def_596 (or b.counter.3__AT2 .def_592)))
(let ((.def_593 (or b.counter.2__AT2 .def_592)))
(let ((.def_591 (or .def_509 .def_514)))
(let ((.def_594 (and .def_591 .def_593)))
(let ((.def_595 (or .def_523 .def_594)))
(let ((.def_597 (and .def_595 .def_596)))
(let ((.def_603 (and .def_597 .def_602)))
(let ((.def_607 (and .def_603 .def_606)))
(let ((.def_586 (<= 0.0 b.delta__AT1)))
(let ((.def_340 (not b.EVENT.0__AT1)))
(let ((.def_338 (not b.EVENT.1__AT1)))
(let ((.def_422 (and .def_338 .def_340)))
(let ((.def_424 (not .def_422)))
(let ((.def_587 (or .def_424 .def_586)))
(let ((.def_588 (or b.EVENT.1__AT1 .def_587)))
(let ((.def_466 (= b.bool_atom__AT1 b.bool_atom__AT2)))
(let ((.def_462 (= b.counter.0__AT1 b.counter.0__AT2)))
(let ((.def_459 (= b.counter.1__AT1 b.counter.1__AT2)))
(let ((.def_456 (= b.counter.2__AT1 b.counter.2__AT2)))
(let ((.def_454 (= b.counter.3__AT1 b.counter.3__AT2)))
(let ((.def_457 (and .def_454 .def_456)))
(let ((.def_460 (and .def_457 .def_459)))
(let ((.def_463 (and .def_460 .def_462)))
(let ((.def_582 (and .def_463 .def_466)))
(let ((.def_583 (or .def_424 .def_582)))
(let ((.def_584 (or b.EVENT.1__AT1 .def_583)))
(let ((.def_570 (* (- 10.0) b.y__AT2)))
(let ((.def_353 (* b.delta__AT1 b.delta__AT1)))
(let ((.def_360 (* (- 49.0) .def_353)))
(let ((.def_574 (+ .def_360 .def_570)))
(let ((.def_351 (* b.speed_y__AT1 b.delta__AT1)))
(let ((.def_352 (* 10.0 .def_351)))
(let ((.def_575 (+ .def_352 .def_574)))
(let ((.def_374 (* 10.0 b.y__AT1)))
(let ((.def_576 (+ .def_374 .def_575)))
(let ((.def_577 (= .def_576 0.0 )))
(let ((.def_565 (* (- 5.0) b.speed_y__AT2)))
(let ((.def_394 (* (- 49.0) b.delta__AT1)))
(let ((.def_566 (+ .def_394 .def_565)))
(let ((.def_396 (* 5.0 b.speed_y__AT1)))
(let ((.def_567 (+ .def_396 .def_566)))
(let ((.def_568 (= .def_567 0.0 )))
(let ((.def_557 (* b.speed_x__AT1 b.delta__AT1)))
(let ((.def_561 (+ .def_558 .def_557)))
(let ((.def_562 (+ b.x__AT1 .def_561)))
(let ((.def_563 (= .def_562 0.0 )))
(let ((.def_448 (= b.speed_x__AT1 b.speed_x__AT2)))
(let ((.def_564 (and .def_448 .def_563)))
(let ((.def_569 (and .def_564 .def_568)))
(let ((.def_578 (and .def_569 .def_577)))
(let ((.def_579 (or .def_424 .def_578)))
(let ((.def_445 (= b.y__AT1 b.y__AT2)))
(let ((.def_442 (= b.x__AT1 b.x__AT2)))
(let ((.def_551 (and .def_442 .def_445)))
(let ((.def_552 (and .def_448 .def_551)))
(let ((.def_451 (= b.speed_y__AT1 b.speed_y__AT2)))
(let ((.def_553 (and .def_451 .def_552)))
(let ((.def_548 (= b.delta__AT1 0.0 )))
(let ((.def_549 (and .def_422 .def_548)))
(let ((.def_550 (not .def_549)))
(let ((.def_554 (or .def_550 .def_553)))
(let ((.def_555 (or b.EVENT.1__AT1 .def_554)))
(let ((.def_540 (and .def_448 .def_451)))
(let ((.def_541 (and .def_463 .def_540)))
(let ((.def_542 (or b.bool_atom__AT1 .def_541)))
(let ((.def_515 (or b.counter.0__AT1 .def_514)))
(let ((.def_513 (or .def_253 b.counter.0__AT2)))
(let ((.def_516 (and .def_513 .def_515)))
(let ((.def_517 (and .def_504 .def_516)))
(let ((.def_518 (or b.counter.1__AT1 .def_517)))
(let ((.def_512 (or .def_243 b.counter.1__AT2)))
(let ((.def_519 (and .def_512 .def_518)))
(let ((.def_531 (and .def_509 .def_519)))
(let ((.def_532 (or b.counter.2__AT1 .def_531)))
(let ((.def_526 (and .def_253 .def_504)))
(let ((.def_527 (or b.counter.1__AT1 .def_526)))
(let ((.def_528 (and .def_512 .def_527)))
(let ((.def_529 (and b.counter.2__AT2 .def_528)))
(let ((.def_530 (or .def_248 .def_529)))
(let ((.def_533 (and .def_530 .def_532)))
(let ((.def_534 (and b.counter.3__AT2 .def_533)))
(let ((.def_535 (or b.counter.3__AT1 .def_534)))
(let ((.def_520 (and b.counter.2__AT2 .def_519)))
(let ((.def_521 (or b.counter.2__AT1 .def_520)))
(let ((.def_507 (or b.counter.1__AT1 b.counter.1__AT2)))
(let ((.def_505 (and b.counter.0__AT2 .def_504)))
(let ((.def_506 (or .def_243 .def_505)))
(let ((.def_508 (and .def_506 .def_507)))
(let ((.def_510 (and .def_508 .def_509)))
(let ((.def_511 (or .def_248 .def_510)))
(let ((.def_522 (and .def_511 .def_521)))
(let ((.def_524 (and .def_522 .def_523)))
(let ((.def_525 (or .def_262 .def_524)))
(let ((.def_536 (and .def_525 .def_535)))
(let ((.def_229 (* b.speed_y__AT1 b.speed_y__AT1)))
(let ((.def_227 (* b.speed_x__AT1 b.speed_x__AT1)))
(let ((.def_496 (+ .def_227 .def_229)))
(let ((.def_497 (* .def_232 .def_496)))
(let ((.def_499 (* (- 1.0) .def_497)))
(let ((.def_500 (+ .def_493 .def_499)))
(let ((.def_501 (+ .def_491 .def_500)))
(let ((.def_502 (= .def_501 0.0 )))
(let ((.def_484 (* b.speed_y__AT1 .def_216)))
(let ((.def_212 (* (- 2.0) b.x__AT1)))
(let ((.def_213 (* (- 1.0) .def_212)))
(let ((.def_481 (* .def_213 .def_216)))
(let ((.def_482 (* b.speed_x__AT1 .def_481)))
(let ((.def_487 (+ .def_482 .def_484)))
(let ((.def_488 (+ .def_480 .def_487)))
(let ((.def_489 (+ b.speed_y__AT2 .def_488)))
(let ((.def_490 (= .def_489 0.0 )))
(let ((.def_503 (and .def_490 .def_502)))
(let ((.def_537 (and .def_503 .def_536)))
(let ((.def_477 (not b.bool_atom__AT1)))
(let ((.def_538 (or .def_477 .def_537)))
(let ((.def_214 (* b.speed_x__AT1 .def_213)))
(let ((.def_472 (+ b.speed_y__AT1 .def_214)))
(let ((.def_473 (<= 0.0 .def_472)))
(let ((.def_474 (not .def_473)))
(let ((.def_297 (* (- 1.0) b.x__AT1)))
(let ((.def_343 (* b.x__AT1 .def_297)))
(let ((.def_471 (= b.y__AT1 .def_343)))
(let ((.def_475 (and .def_471 .def_474)))
(let ((.def_476 (= b.bool_atom__AT1 .def_475)))
(let ((.def_539 (and .def_476 .def_538)))
(let ((.def_543 (and .def_539 .def_542)))
(let ((.def_544 (and .def_442 .def_543)))
(let ((.def_545 (and .def_445 .def_544)))
(let ((.def_546 (or .def_422 .def_545)))
(let ((.def_547 (or b.EVENT.1__AT1 .def_546)))
(let ((.def_556 (and .def_547 .def_555)))
(let ((.def_580 (and .def_556 .def_579)))
(let ((.def_429 (= b.time__AT1 b.time__AT2)))
(let ((.def_443 (and .def_429 .def_442)))
(let ((.def_446 (and .def_443 .def_445)))
(let ((.def_449 (and .def_446 .def_448)))
(let ((.def_452 (and .def_449 .def_451)))
(let ((.def_464 (and .def_452 .def_463)))
(let ((.def_467 (and .def_464 .def_466)))
(let ((.def_468 (or .def_338 .def_467)))
(let ((.def_432 (* (- 1.0) b.time__AT2)))
(let ((.def_435 (+ b.delta__AT1 .def_432)))
(let ((.def_436 (+ b.time__AT1 .def_435)))
(let ((.def_437 (= .def_436 0.0 )))
(let ((.def_438 (or .def_424 .def_437)))
(let ((.def_439 (or b.EVENT.1__AT1 .def_438)))
(let ((.def_430 (or .def_422 .def_429)))
(let ((.def_431 (or b.EVENT.1__AT1 .def_430)))
(let ((.def_440 (and .def_431 .def_439)))
(let ((.def_469 (and .def_440 .def_468)))
(let ((.def_426 (= .def_424 b.event_is_timed__AT2)))
(let ((.def_423 (= b.event_is_timed__AT1 .def_422)))
(let ((.def_427 (and .def_423 .def_426)))
(let ((.def_470 (and .def_427 .def_469)))
(let ((.def_581 (and .def_470 .def_580)))
(let ((.def_585 (and .def_581 .def_584)))
(let ((.def_589 (and .def_585 .def_588)))
(let ((.def_590 (and .def_338 .def_589)))
(let ((.def_608 (and .def_590 .def_607)))
(let ((.def_612 (and .def_608 .def_611)))
(let ((.def_354 (* (- 1.0) b.speed_x__AT1)))
(let ((.def_355 (* b.speed_x__AT1 .def_354)))
(let ((.def_356 (* (- 1.0) .def_355)))
(let ((.def_387 (* 2.0 .def_356)))
(let ((.def_405 (* (- 1.0) .def_387)))
(let ((.def_406 (* b.delta__AT1 .def_405)))
(let ((.def_407 (* (- 5.0) .def_406)))
(let ((.def_367 (* b.speed_x__AT1 .def_297)))
(let ((.def_392 (* (- 5.0) .def_367)))
(let ((.def_412 (+ .def_392 .def_407)))
(let ((.def_362 (* b.x__AT1 .def_354)))
(let ((.def_390 (* (- 5.0) .def_362)))
(let ((.def_413 (+ .def_390 .def_412)))
(let ((.def_414 (+ .def_394 .def_413)))
(let ((.def_415 (+ .def_396 .def_414)))
(let ((.def_416 (<= .def_415 0.0 )))
(let ((.def_368 (* (- 1.0) .def_367)))
(let ((.def_363 (* (- 1.0) .def_362)))
(let ((.def_384 (+ .def_363 .def_368)))
(let ((.def_385 (+ b.speed_y__AT1 .def_384)))
(let ((.def_404 (<= .def_385 0.0 )))
(let ((.def_417 (and .def_404 .def_416)))
(let ((.def_388 (* b.delta__AT1 .def_387)))
(let ((.def_389 (* 5.0 .def_388)))
(let ((.def_398 (+ .def_392 .def_389)))
(let ((.def_399 (+ .def_390 .def_398)))
(let ((.def_400 (+ .def_394 .def_399)))
(let ((.def_401 (+ .def_396 .def_400)))
(let ((.def_402 (<= 0.0 .def_401)))
(let ((.def_386 (<= 0.0 .def_385)))
(let ((.def_403 (and .def_386 .def_402)))
(let ((.def_418 (or .def_403 .def_417)))
(let ((.def_369 (* b.delta__AT1 .def_368)))
(let ((.def_370 (* 10.0 .def_369)))
(let ((.def_364 (* b.delta__AT1 .def_363)))
(let ((.def_365 (* 10.0 .def_364)))
(let ((.def_376 (+ .def_365 .def_370)))
(let ((.def_357 (* .def_353 .def_356)))
(let ((.def_358 (* 10.0 .def_357)))
(let ((.def_377 (+ .def_358 .def_376)))
(let ((.def_378 (+ .def_360 .def_377)))
(let ((.def_379 (+ .def_352 .def_378)))
(let ((.def_372 (* (- 10.0) .def_343)))
(let ((.def_380 (+ .def_372 .def_379)))
(let ((.def_381 (+ .def_374 .def_380)))
(let ((.def_382 (<= 0.0 .def_381)))
(let ((.def_344 (<= .def_343 b.y__AT1)))
(let ((.def_383 (and .def_344 .def_382)))
(let ((.def_419 (and .def_383 .def_418)))
(let ((.def_420 (and .def_69 .def_419)))
(let ((.def_345 (and .def_69 .def_344)))
(let ((.def_341 (or .def_338 .def_340)))
(let ((.def_331 (or .def_243 .def_253)))
(let ((.def_335 (or b.counter.3__AT1 .def_331)))
(let ((.def_332 (or b.counter.2__AT1 .def_331)))
(let ((.def_330 (or .def_248 .def_253)))
(let ((.def_333 (and .def_330 .def_332)))
(let ((.def_334 (or .def_262 .def_333)))
(let ((.def_336 (and .def_334 .def_335)))
(let ((.def_342 (and .def_336 .def_341)))
(let ((.def_346 (and .def_342 .def_345)))
(let ((.def_325 (<= 0.0 b.delta__AT0)))
(let ((.def_56 (not b.EVENT.0__AT0)))
(let ((.def_54 (not b.EVENT.1__AT0)))
(let ((.def_151 (and .def_54 .def_56)))
(let ((.def_153 (not .def_151)))
(let ((.def_326 (or .def_153 .def_325)))
(let ((.def_327 (or b.EVENT.1__AT0 .def_326)))
(let ((.def_196 (= b.bool_atom__AT0 b.bool_atom__AT1)))
(let ((.def_191 (= b.counter.0__AT0 b.counter.0__AT1)))
(let ((.def_188 (= b.counter.1__AT0 b.counter.1__AT1)))
(let ((.def_185 (= b.counter.2__AT0 b.counter.2__AT1)))
(let ((.def_183 (= b.counter.3__AT0 b.counter.3__AT1)))
(let ((.def_186 (and .def_183 .def_185)))
(let ((.def_189 (and .def_186 .def_188)))
(let ((.def_192 (and .def_189 .def_191)))
(let ((.def_321 (and .def_192 .def_196)))
(let ((.def_322 (or .def_153 .def_321)))
(let ((.def_323 (or b.EVENT.1__AT0 .def_322)))
(let ((.def_310 (* (- 10.0) b.y__AT1)))
(let ((.def_77 (* b.delta__AT0 b.delta__AT0)))
(let ((.def_86 (* (- 49.0) .def_77)))
(let ((.def_313 (+ .def_86 .def_310)))
(let ((.def_75 (* b.speed_y__AT0 b.delta__AT0)))
(let ((.def_76 (* 10.0 .def_75)))
(let ((.def_314 (+ .def_76 .def_313)))
(let ((.def_101 (* 10.0 b.y__AT0)))
(let ((.def_315 (+ .def_101 .def_314)))
(let ((.def_316 (= .def_315 0.0 )))
(let ((.def_304 (* (- 5.0) b.speed_y__AT1)))
(let ((.def_123 (* (- 49.0) b.delta__AT0)))
(let ((.def_305 (+ .def_123 .def_304)))
(let ((.def_125 (* 5.0 b.speed_y__AT0)))
(let ((.def_306 (+ .def_125 .def_305)))
(let ((.def_307 (= .def_306 0.0 )))
(let ((.def_296 (* b.speed_x__AT0 b.delta__AT0)))
(let ((.def_300 (+ .def_297 .def_296)))
(let ((.def_301 (+ b.x__AT0 .def_300)))
(let ((.def_302 (= .def_301 0.0 )))
(let ((.def_177 (= b.speed_x__AT0 b.speed_x__AT1)))
(let ((.def_303 (and .def_177 .def_302)))
(let ((.def_308 (and .def_303 .def_307)))
(let ((.def_317 (and .def_308 .def_316)))
(let ((.def_318 (or .def_153 .def_317)))
(let ((.def_174 (= b.y__AT0 b.y__AT1)))
(let ((.def_171 (= b.x__AT0 b.x__AT1)))
(let ((.def_290 (and .def_171 .def_174)))
(let ((.def_291 (and .def_177 .def_290)))
(let ((.def_180 (= b.speed_y__AT0 b.speed_y__AT1)))
(let ((.def_292 (and .def_180 .def_291)))
(let ((.def_287 (= b.delta__AT0 0.0 )))
(let ((.def_288 (and .def_151 .def_287)))
(let ((.def_289 (not .def_288)))
(let ((.def_293 (or .def_289 .def_292)))
(let ((.def_294 (or b.EVENT.1__AT0 .def_293)))
(let ((.def_279 (and .def_177 .def_180)))
(let ((.def_280 (and .def_192 .def_279)))
(let ((.def_281 (or b.bool_atom__AT0 .def_280)))
(let ((.def_254 (or b.counter.0__AT0 .def_253)))
(let ((.def_37 (not b.counter.0__AT0)))
(let ((.def_252 (or .def_37 b.counter.0__AT1)))
(let ((.def_255 (and .def_252 .def_254)))
(let ((.def_256 (and .def_243 .def_255)))
(let ((.def_257 (or b.counter.1__AT0 .def_256)))
(let ((.def_35 (not b.counter.1__AT0)))
(let ((.def_251 (or .def_35 b.counter.1__AT1)))
(let ((.def_258 (and .def_251 .def_257)))
(let ((.def_270 (and .def_248 .def_258)))
(let ((.def_271 (or b.counter.2__AT0 .def_270)))
(let ((.def_265 (and .def_37 .def_243)))
(let ((.def_266 (or b.counter.1__AT0 .def_265)))
(let ((.def_267 (and .def_251 .def_266)))
(let ((.def_268 (and b.counter.2__AT1 .def_267)))
(let ((.def_40 (not b.counter.2__AT0)))
(let ((.def_269 (or .def_40 .def_268)))
(let ((.def_272 (and .def_269 .def_271)))
(let ((.def_273 (and b.counter.3__AT1 .def_272)))
(let ((.def_274 (or b.counter.3__AT0 .def_273)))
(let ((.def_259 (and b.counter.2__AT1 .def_258)))
(let ((.def_260 (or b.counter.2__AT0 .def_259)))
(let ((.def_246 (or b.counter.1__AT0 b.counter.1__AT1)))
(let ((.def_244 (and b.counter.0__AT1 .def_243)))
(let ((.def_245 (or .def_35 .def_244)))
(let ((.def_247 (and .def_245 .def_246)))
(let ((.def_249 (and .def_247 .def_248)))
(let ((.def_250 (or .def_40 .def_249)))
(let ((.def_261 (and .def_250 .def_260)))
(let ((.def_263 (and .def_261 .def_262)))
(let ((.def_43 (not b.counter.3__AT0)))
(let ((.def_264 (or .def_43 .def_263)))
(let ((.def_275 (and .def_264 .def_274)))
(let ((.def_234 (* b.speed_y__AT0 b.speed_y__AT0)))
(let ((.def_233 (* b.speed_x__AT0 b.speed_x__AT0)))
(let ((.def_235 (+ .def_233 .def_234)))
(let ((.def_236 (* .def_232 .def_235)))
(let ((.def_238 (* (- 1.0) .def_236)))
(let ((.def_239 (+ .def_229 .def_238)))
(let ((.def_240 (+ .def_227 .def_239)))
(let ((.def_241 (= .def_240 0.0 )))
(let ((.def_220 (* b.speed_y__AT0 .def_216)))
(let ((.def_203 (* (- 2.0) b.x__AT0)))
(let ((.def_204 (* (- 1.0) .def_203)))
(let ((.def_217 (* .def_204 .def_216)))
(let ((.def_218 (* b.speed_x__AT0 .def_217)))
(let ((.def_223 (+ .def_218 .def_220)))
(let ((.def_224 (+ .def_214 .def_223)))
(let ((.def_225 (+ b.speed_y__AT1 .def_224)))
(let ((.def_226 (= .def_225 0.0 )))
(let ((.def_242 (and .def_226 .def_241)))
(let ((.def_276 (and .def_242 .def_275)))
(let ((.def_211 (not b.bool_atom__AT0)))
(let ((.def_277 (or .def_211 .def_276)))
(let ((.def_205 (* b.speed_x__AT0 .def_204)))
(let ((.def_206 (+ b.speed_y__AT0 .def_205)))
(let ((.def_207 (<= 0.0 .def_206)))
(let ((.def_208 (not .def_207)))
(let ((.def_60 (* (- 1.0) b.x__AT0)))
(let ((.def_61 (* b.x__AT0 .def_60)))
(let ((.def_201 (= b.y__AT0 .def_61)))
(let ((.def_209 (and .def_201 .def_208)))
(let ((.def_210 (= b.bool_atom__AT0 .def_209)))
(let ((.def_278 (and .def_210 .def_277)))
(let ((.def_282 (and .def_278 .def_281)))
(let ((.def_283 (and .def_171 .def_282)))
(let ((.def_284 (and .def_174 .def_283)))
(let ((.def_285 (or .def_151 .def_284)))
(let ((.def_286 (or b.EVENT.1__AT0 .def_285)))
(let ((.def_295 (and .def_286 .def_294)))
(let ((.def_319 (and .def_295 .def_318)))
(let ((.def_158 (= b.time__AT0 b.time__AT1)))
(let ((.def_172 (and .def_158 .def_171)))
(let ((.def_175 (and .def_172 .def_174)))
(let ((.def_178 (and .def_175 .def_177)))
(let ((.def_181 (and .def_178 .def_180)))
(let ((.def_193 (and .def_181 .def_192)))
(let ((.def_197 (and .def_193 .def_196)))
(let ((.def_198 (or .def_54 .def_197)))
(let ((.def_161 (* (- 1.0) b.time__AT1)))
(let ((.def_164 (+ b.delta__AT0 .def_161)))
(let ((.def_165 (+ b.time__AT0 .def_164)))
(let ((.def_166 (= .def_165 0.0 )))
(let ((.def_167 (or .def_153 .def_166)))
(let ((.def_168 (or b.EVENT.1__AT0 .def_167)))
(let ((.def_159 (or .def_151 .def_158)))
(let ((.def_160 (or b.EVENT.1__AT0 .def_159)))
(let ((.def_169 (and .def_160 .def_168)))
(let ((.def_199 (and .def_169 .def_198)))
(let ((.def_155 (= .def_153 b.event_is_timed__AT1)))
(let ((.def_152 (= b.event_is_timed__AT0 .def_151)))
(let ((.def_156 (and .def_152 .def_155)))
(let ((.def_200 (and .def_156 .def_199)))
(let ((.def_320 (and .def_200 .def_319)))
(let ((.def_324 (and .def_320 .def_323)))
(let ((.def_328 (and .def_324 .def_327)))
(let ((.def_329 (and .def_54 .def_328)))
(let ((.def_347 (and .def_329 .def_346)))
(let ((.def_38 (and .def_35 .def_37)))
(let ((.def_41 (and .def_38 .def_40)))
(let ((.def_44 (and .def_41 .def_43)))
(let ((.def_348 (and .def_44 .def_347)))
(let ((.def_78 (* (- 1.0) b.speed_x__AT0)))
(let ((.def_79 (* b.speed_x__AT0 .def_78)))
(let ((.def_80 (* (- 1.0) .def_79)))
(let ((.def_114 (* 2.0 .def_80)))
(let ((.def_134 (* (- 1.0) .def_114)))
(let ((.def_135 (* b.delta__AT0 .def_134)))
(let ((.def_136 (* (- 5.0) .def_135)))
(let ((.def_93 (* b.speed_x__AT0 .def_60)))
(let ((.def_121 (* (- 5.0) .def_93)))
(let ((.def_141 (+ .def_121 .def_136)))
(let ((.def_88 (* b.x__AT0 .def_78)))
(let ((.def_119 (* (- 5.0) .def_88)))
(let ((.def_142 (+ .def_119 .def_141)))
(let ((.def_143 (+ .def_123 .def_142)))
(let ((.def_144 (+ .def_125 .def_143)))
(let ((.def_145 (<= .def_144 0.0 )))
(let ((.def_94 (* (- 1.0) .def_93)))
(let ((.def_89 (* (- 1.0) .def_88)))
(let ((.def_111 (+ .def_89 .def_94)))
(let ((.def_112 (+ b.speed_y__AT0 .def_111)))
(let ((.def_133 (<= .def_112 0.0 )))
(let ((.def_146 (and .def_133 .def_145)))
(let ((.def_115 (* b.delta__AT0 .def_114)))
(let ((.def_117 (* 5.0 .def_115)))
(let ((.def_127 (+ .def_121 .def_117)))
(let ((.def_128 (+ .def_119 .def_127)))
(let ((.def_129 (+ .def_123 .def_128)))
(let ((.def_130 (+ .def_125 .def_129)))
(let ((.def_131 (<= 0.0 .def_130)))
(let ((.def_113 (<= 0.0 .def_112)))
(let ((.def_132 (and .def_113 .def_131)))
(let ((.def_147 (or .def_132 .def_146)))
(let ((.def_95 (* b.delta__AT0 .def_94)))
(let ((.def_96 (* 10.0 .def_95)))
(let ((.def_90 (* b.delta__AT0 .def_89)))
(let ((.def_91 (* 10.0 .def_90)))
(let ((.def_103 (+ .def_91 .def_96)))
(let ((.def_81 (* .def_77 .def_80)))
(let ((.def_82 (* 10.0 .def_81)))
(let ((.def_104 (+ .def_82 .def_103)))
(let ((.def_105 (+ .def_86 .def_104)))
(let ((.def_106 (+ .def_76 .def_105)))
(let ((.def_99 (* (- 10.0) .def_61)))
(let ((.def_107 (+ .def_99 .def_106)))
(let ((.def_108 (+ .def_101 .def_107)))
(let ((.def_109 (<= 0.0 .def_108)))
(let ((.def_62 (<= .def_61 b.y__AT0)))
(let ((.def_110 (and .def_62 .def_109)))
(let ((.def_148 (and .def_110 .def_147)))
(let ((.def_149 (and .def_69 .def_148)))
(let ((.def_70 (and .def_62 .def_69)))
(let ((.def_57 (or .def_54 .def_56)))
(let ((.def_47 (or .def_35 .def_37)))
(let ((.def_51 (or b.counter.3__AT0 .def_47)))
(let ((.def_48 (or b.counter.2__AT0 .def_47)))
(let ((.def_46 (or .def_37 .def_40)))
(let ((.def_49 (and .def_46 .def_48)))
(let ((.def_50 (or .def_43 .def_49)))
(let ((.def_52 (and .def_50 .def_51)))
(let ((.def_58 (and .def_52 .def_57)))
(let ((.def_71 (and .def_58 .def_70)))
(let ((.def_32 (= b.speed_y__AT0 1.0 )))
(let ((.def_29 (= b.speed_x__AT0 1.0 )))
(let ((.def_25 (= b.y__AT0 10.0 )))
(let ((.def_21 (= b.x__AT0 0.0 )))
(let ((.def_17 (= b.time__AT0 0.0 )))
(let ((.def_19 (and .def_17 b.event_is_timed__AT0)))
(let ((.def_22 (and .def_19 .def_21)))
(let ((.def_26 (and .def_22 .def_25)))
(let ((.def_30 (and .def_26 .def_29)))
(let ((.def_33 (and .def_30 .def_32)))
(let ((.def_45 (and .def_33 .def_44)))
(let ((.def_72 (and .def_45 .def_71)))
(let ((.def_7 (and .def_4 .def_6)))
(let ((.def_10 (and .def_7 .def_9)))
(let ((.def_13 (and .def_10 .def_12)))
(let ((.def_14 (not .def_13)))
(let ((.def_73 (and .def_14 .def_72)))
(let ((.def_150 (and .def_73 .def_149)))
(let ((.def_349 (and .def_150 .def_348)))
(let ((.def_421 (and .def_349 .def_420)))
(let ((.def_613 (and .def_421 .def_612)))
(let ((.def_685 (and .def_613 .def_684)))
(let ((.def_869 (and .def_685 .def_868)))
(let ((.def_941 (and .def_869 .def_940)))
.def_941))))))))))))))))))))))))))))))))))))))))))))))))))))))))))))))))))))))))))))))))))))))))))))))))))))))))))))))))))))))))))))))))))))))))))))))))))))))))))))))))))))))))))))))))))))))))))))))))))))))))))))))))))))))))))))))))))))))))))))))))))))))))))))))))))))))))))))))))))))))))))))))))))))))))))))))))))))))))))))))))))))))))))))))))))))))))))))))))))))))))))))))))))))))))))))))))))))))))))))))))))))))))))))))))))))))))))))))))))))))))))))))))))))))))))))))))))))))))))))))))))))))))))))))))))))))))))))))))))))))))))))))))))))))))))))))))))))))))))))))))))))))))))))))))))))))))))))))))))))))))))))))))))))))))))))))))))))))))))))))))))))))))))))))))))))))))))))))))))))))))))))))))))))))))))))))))))))))))))))))))))))))))))))))))))))))))))))))))))))))))))))))))))))
(check-sat)
(exit)
